Instance: Data/Instances_txt/inst_200_50_4.txt
SetUpTime: 11030.590147972107

Gurobi 10.0.1 (mac64[x86]) logging started Do  3 Aug 19:12:46 2023

Set parameter LogFile to value "Output/MILP_RELAXED_inst_200_50_4_2023-08-03_14-59-33.txt"

Gurobi 10.0.1 (mac64[x86]) logging started Do  3 Aug 19:12:46 2023

Set parameter LogFile to value "Output/MILP_RELAXED_inst_200_50_4_2023-08-03_14-59-33.txt"
Gurobi Optimizer version 10.0.1 build v10.0.1rc0 (mac64[x86])

CPU model: Intel(R) Core(TM) i5-1038NG7 CPU @ 2.00GHz
Thread count: 4 physical cores, 8 logical processors, using up to 8 threads

Optimize a model with 401 rows, 1677286 columns and 30328593 nonzeros
Model fingerprint: 0xa91c1106
Coefficient statistics:
  Matrix range     [1e+00, 1e+00]
  Objective range  [2e+00, 2e+04]
  Bounds range     [1e+00, 1e+00]
  RHS range        [1e+00, 1e+00]
Presolve removed 0 rows and 0 columns (presolve time = 6s) ...
Presolve removed 0 rows and 0 columns (presolve time = 10s) ...
Presolve time: 10.42s
Presolved: 401 rows, 1677286 columns, 30328593 nonzeros

Concurrent LP optimizer: dual simplex and barrier
Showing barrier log only...

Ordering time: 0.00s

Barrier statistics:
 AA' NZ     : 5.900e+04
 Factor NZ  : 8.060e+04 (roughly 700 MB of memory)
 Factor Ops : 2.157e+07 (less than 1 second per iteration)
 Threads    : 3

                  Objective                Residual
Iter       Primal          Dual         Primal    Dual     Compl     Time
   0   1.14393268e+09  0.00000000e+00  4.23e+04 0.00e+00  1.74e+00    15s
   1   2.21032596e+08 -4.34836809e+04  7.96e+03 3.17e+00  3.30e-01    16s
   2   1.80796749e+07 -5.00482074e+04  6.23e+02 9.08e-01  2.69e-02    17s
   3   5.50776092e+05 -4.74867235e+04  1.53e+01 6.39e-14  8.30e-04    19s
   4   2.24396959e+05 -7.85955031e+03  4.51e+00 4.97e-13  2.88e-04    20s
   5   1.83297437e+05  8.69383775e+03  3.22e+00 3.62e-13  2.06e-04    21s
   6   1.45193760e+05  1.91732750e+04  2.15e+00 3.09e-13  1.42e-04    22s
   7   9.52254727e+04  3.14742978e+04  6.82e-01 4.41e-13  6.94e-05    23s
   8   7.38108978e+04  3.91354194e+04  1.63e-01 2.27e-13  3.85e-05    24s
   9   6.60996892e+04  4.28741362e+04  4.67e-02 3.27e-13  2.64e-05    26s
  10   6.36765513e+04  4.78484416e+04  2.62e-02 2.84e-13  1.80e-05    27s
  11   6.27481965e+04  4.96202726e+04  2.05e-02 2.59e-13  1.49e-05    28s
  12   6.23113531e+04  5.15529116e+04  1.86e-02 2.79e-13  1.22e-05    29s
  13   6.21273445e+04  5.19983709e+04  1.78e-02 2.90e-13  1.14e-05    30s
  14   5.98603662e+04  5.31494848e+04  8.81e-03 2.52e-13  7.63e-06    31s
  15   5.79887069e+04  5.43685030e+04  3.31e-03 2.63e-13  4.14e-06    33s
  16   5.67604329e+04  5.45038076e+04  1.37e-03 3.13e-13  2.60e-06    34s
  17   5.59406624e+04  5.46875138e+04  5.75e-04 4.41e-13  1.45e-06    36s
  18   5.55676111e+04  5.47873008e+04  2.92e-04 2.52e-13  9.02e-07    37s
  19   5.53710616e+04  5.47959858e+04  1.78e-04 2.84e-13  6.66e-07    38s
  20   5.52434987e+04  5.48608730e+04  1.18e-04 3.52e-13  4.43e-07    39s
  21   5.51533633e+04  5.48864731e+04  8.10e-05 3.52e-13  3.09e-07    39s
  22   5.50592685e+04  5.49072321e+04  4.39e-05 3.16e-13  1.76e-07    41s
  23   5.49959417e+04  5.49161310e+04  2.06e-05 2.72e-13  9.25e-08    42s
  24   5.49642194e+04  5.49223200e+04  1.09e-05 2.66e-13  4.85e-08    43s
  25   5.49566955e+04  5.49261454e+04  8.47e-06 2.70e-13  3.54e-08    44s
  26   5.49546655e+04  5.49265429e+04  7.83e-06 2.54e-13  3.26e-08    44s
  27   5.49455281e+04  5.49270936e+04  5.01e-06 2.31e-13  2.14e-08    45s
  28   5.49375118e+04  5.49276062e+04  2.53e-06 3.09e-13  1.15e-08    46s
  29   5.49313964e+04  5.49281002e+04  6.45e-07 2.59e-13  3.82e-09    47s
  30   5.49299311e+04  5.49287428e+04  2.47e-07 3.29e-13  1.38e-09    48s
  31   5.49295732e+04  5.49288760e+04  1.56e-07 2.63e-13  8.08e-10    49s
  32   5.49291023e+04  5.49289464e+04  3.55e-08 2.54e-13  1.81e-10    50s
  33   5.49289761e+04  5.49289536e+04  3.59e-09 3.13e-13  2.61e-11    51s
  34   5.49289638e+04  5.49289589e+04  8.84e-10 2.49e-13  5.62e-12    52s
  35   5.49289593e+04  5.49289592e+04  5.01e-10 4.01e-13  7.05e-14    53s

Barrier solved model in 35 iterations and 52.94 seconds (49.88 work units)
Optimal objective 5.49289593e+04

Crossover log...

     139 DPushes remaining with DInf 0.0000000e+00                54s
       2 DPushes remaining with DInf 0.0000000e+00                56s

     327 PPushes remaining with PInf 0.0000000e+00                56s
       0 PPushes remaining with PInf 0.0000000e+00                56s

  Push phase complete: Pinf 0.0000000e+00, Dinf 1.6783824e-11     56s


Solved with barrier
Iteration    Objective       Primal Inf.    Dual Inf.      Time
     467    5.4928959e+04   0.000000e+00   0.000000e+00     58s

Solved in 467 iterations and 57.71 seconds (52.36 work units)
Optimal objective  5.492895924e+04

User-callback calls 1444, time in user-callback 0.01 sec
Set parameter TimeLimit to value 2700
Gurobi Optimizer version 10.0.1 build v10.0.1rc0 (mac64[x86])

CPU model: Intel(R) Core(TM) i5-1038NG7 CPU @ 2.00GHz
Thread count: 4 physical cores, 8 logical processors, using up to 8 threads

Optimize a model with 401 rows, 1677286 columns and 30328593 nonzeros
Model fingerprint: 0x6a4eb889
Variable types: 0 continuous, 1677286 integer (0 binary)
Coefficient statistics:
  Matrix range     [1e+00, 1e+00]
  Objective range  [2e+00, 2e+04]
  Bounds range     [1e+00, 1e+00]
  RHS range        [1e+00, 1e+00]
Presolve removed 0 rows and 0 columns (presolve time = 5s) ...
Presolve removed 0 rows and 0 columns (presolve time = 10s) ...
Presolve removed 0 rows and 0 columns (presolve time = 16s) ...
Presolve removed 0 rows and 0 columns (presolve time = 20s) ...
Presolve removed 0 rows and 0 columns (presolve time = 25s) ...
Presolve removed 0 rows and 0 columns (presolve time = 31s) ...
Presolve removed 0 rows and 0 columns (presolve time = 36s) ...
Presolve removed 0 rows and 0 columns (presolve time = 40s) ...
Presolve removed 0 rows and 0 columns (presolve time = 45s) ...
Presolve removed 0 rows and 0 columns (presolve time = 50s) ...
Presolve removed 0 rows and 0 columns (presolve time = 55s) ...
Presolve removed 0 rows and 0 columns (presolve time = 60s) ...
Presolve removed 0 rows and 0 columns (presolve time = 65s) ...
Presolve removed 0 rows and 0 columns (presolve time = 70s) ...
Presolve removed 0 rows and 0 columns (presolve time = 75s) ...
Presolve removed 0 rows and 0 columns (presolve time = 80s) ...
Presolve removed 0 rows and 363 columns (presolve time = 85s) ...
Presolve removed 0 rows and 363 columns (presolve time = 90s) ...
Presolve removed 0 rows and 363 columns (presolve time = 96s) ...
Presolve removed 0 rows and 363 columns
Presolve time: 97.19s
Presolved: 401 rows, 1676923 columns, 30320709 nonzeros
Variable types: 0 continuous, 1676923 integer (1676923 binary)

Root simplex log...

Iteration    Objective       Primal Inf.    Dual Inf.      Time
       0    0.0000000e+00   2.020000e+02   0.000000e+00    183s

Starting sifting (using dual simplex for sub-problems)...

    Iter     Pivots    Primal Obj      Dual Obj        Time
       0          0     infinity      0.0000000e+00    183s
       1       2810   2.0200000e+08   2.0098896e+02    184s
       2       5678   1.9740958e+08   1.9814100e+03    184s
       3       9523   1.8139227e+08   3.4097257e+03    185s
       4      16339   1.6161046e+08   3.8451562e+03    186s
       5      21782   1.5151221e+08   4.0390944e+03    187s
       6      27378   1.3655550e+08   5.3918308e+03    188s
       7      31430   1.3468098e+08   5.3920058e+03    188s
       8      34791   1.3468059e+08   5.7167473e+03    189s
       9      39460   1.3468059e+08   5.7757925e+03    190s
      10      44370   1.3020036e+08   6.1409202e+03    191s
      11      47518   1.2917029e+08   7.1563138e+03    191s
      12      52255   1.2742091e+08   7.4041721e+03    192s
      13      57251   1.2487449e+08   7.9354723e+03    193s
      14      62785   1.1906525e+08   8.3182740e+03    195s
      15      67782   1.1471816e+08   8.5283110e+03    196s
      16      71644   1.1064026e+08   9.1855427e+03    197s
      17      77695   1.0377253e+08   9.8702277e+03    198s
      18      84544   9.0999437e+07   1.0319727e+04    200s
      19      92521   8.1730204e+07   1.0561306e+04    202s
      20     100544   7.6303047e+07   1.1162729e+04    204s
      21     110024   6.6416968e+07   1.2204650e+04    206s
      22     117758   5.2028825e+07   1.2594855e+04    208s
      23     129225   4.2797218e+07   1.3002107e+04    212s
      24     140798   2.9702837e+07   1.3618531e+04    216s
      25     153726   1.9425565e+07   1.3948899e+04    220s
      26     166173   1.2408902e+07   1.4357890e+04    226s
      27     179440   3.4743234e+06   1.4433036e+04    232s
      28     191584   2.2947030e+05   1.4465618e+04    240s
      29     197272   8.5455295e+04  -8.2528065e+04    243s
      30     203904   7.7796198e+04  -7.4761434e+04    248s
      31     209828   6.9795805e+04  -6.1954033e+04    252s
      32     216263   6.3822741e+04  -4.8425763e+04    257s
      33     222501   6.0637780e+04  -3.5903770e+04    262s
      34     230145   5.8222399e+04  -1.6854941e+04    269s
      35     237529   5.6054494e+04   7.3907524e+03    276s
      36     247524   5.5045283e+04   2.3019164e+04    285s
      37     255487   5.4618438e+04   3.5272529e+04    293s
      38     263679   5.4286765e+04   4.5010395e+04    301s
      39     270369   5.4164870e+04   5.3138216e+04    307s
      40     273387   5.4158061e+04   5.4223140e+04    309s

Sifting complete

  275255    5.4952237e+04   0.000000e+00   0.000000e+00    310s

Root relaxation: objective 5.495224e+04, 275255 iterations, 128.66 seconds (227.49 work units)

    Nodes    |    Current Node    |     Objective Bounds      |     Work
 Expl Unexpl |  Obj  Depth IntInf | Incumbent    BestBd   Gap | It/Node Time

     0     0 54952.2374    0  271          - 54952.2374      -     -  383s
     0     0 54957.1320    0  275          - 54957.1320      -     -  385s
     0     0 54957.1320    0  275          - 54957.1320      -     -  467s
     0     0 54978.1048    0  288          - 54978.1048      -     -  956s
     0     0 54979.7955    0  277          - 54979.7955      -     -  983s
     0     0 54982.5097    0  290          - 54982.5097      -     - 1016s
     0     0 54986.2219    0  286          - 54986.2219      -     - 1043s
     0     0 54988.1990    0  278          - 54988.1990      -     - 1067s
     0     0 54990.1266    0  278          - 54990.1266      -     - 1094s
     0     0 54990.8236    0  278          - 54990.8236      -     - 1119s
     0     0 54991.9039    0  279          - 54991.9039      -     - 1144s
     0     0 54992.8167    0  290          - 54992.8167      -     - 1169s
     0     0 54994.3048    0  281          - 54994.3048      -     - 1185s
     0     0 54995.1805    0  286          - 54995.1805      -     - 1187s
     0     0 55205.8820    0  372          - 55205.8820      -     - 2091s
     0     0 55213.5897    0  364          - 55213.5897      -     - 2216s
     0     0 55219.7619    0  372          - 55219.7619      -     - 2315s
     0     0 55223.0746    0  370          - 55223.0746      -     - 2396s
     0     0 55225.1419    0  365          - 55225.1419      -     - 2467s
     0     0 55226.2505    0  375          - 55226.2505      -     - 2534s
     0     0 55227.8913    0  365          - 55227.8913      -     - 2605s
     0     0 55228.9992    0  360          - 55228.9992      -     - 2667s
     0     0 55229.6622    0  364          - 55229.6622      -     - 2700s

Cutting planes:
  Clique: 51
  Zero half: 1
  RLT: 2

Explored 1 nodes (601929 simplex iterations) in 2700.42 seconds (2657.78 work units)
Thread count was 8 (of 8 available processors)

Solution count 0

Time limit reached
Best objective -, best bound 5.523000000000e+04, gap -

User-callback calls 32661, time in user-callback 0.13 sec

=========================

OUTPUT STATISTICS
Relaxed: true
Time since start: 13863.995322942734
SetUpTime: 11030.590146780014
Objective value LB: 54928.959242681005
Objective value: 0
Solving time LB: 125.05799388885498
Solving time UB: 2700.6368029117584
